31242
0 0 1 1 1 0 1 0 0 0 1 0 1 1 1 0 0 1 1 1 0 0 1 1 1 1 1 1 1 1 
18 19 2 27 2 12 2 27 22 28 4 28 13 3 28 18 3 10 22 27 18 24 23 24 10 18 27 19 29 2 19 19 4 24 27 6 14 13 27 24 18 26 6 4 3 19 13 24 19 14 24 22 24 22 13 6 18 26 18 25 29 17 18 10 13 12 23 14 28 25 18 12 19 26 23 23 10 23 13 22 10 17 26 25 29 13 6 23 27 25 28 6 25 25 17 3 28 6 17 28 28 2 25 18 4 17 4 24 22 3 19 4 27 12 12 10 28 25 17 13 26 25 17 19 26 22 2 12 26 17 28 24 12 10 23 26 3 3 28 10 12 22 12 25 25 23 24 22 27 25 27 17 23 17 13 28 2 22 3 13 13 27 10 24 23 27 23 4 3 2 13 10 19 14 26 2 17 10 29 10 2 24 2 19 12 13 28 23 17 24 2 2 6 4 25 12 25 2 10 19 
